<?xml version = "1.0" encoding="UTF-8" standalone="yes"?>
<CPLEXSolution version="1.2">
 <header
   problemName="mknap4"
   solutionName="incumbent"
   solutionIndex="-1"
   objectiveValue="10618"
   solutionTypeValue="3"
   solutionTypeString="primal"
   solutionStatusValue="101"
   solutionStatusString="integer optimal solution"
   solutionMethodString="mip"
   primalFeasible="1"
   dualFeasible="1"
   MIPNodes="0"
   MIPIterations="34"
   writeLevel="1"/>
 <quality
   epInt="1.0000000000000001e-05"
   epRHS="9.9999999999999995e-07"
   maxIntInfeas="0"
   maxPrimalInfeas="0"
   maxX="1"
   maxSlack="73"/>
 <linearConstraints>
  <constraint name="c0" index="0" slack="3"/>
  <constraint name="c1" index="1" slack="4"/>
  <constraint name="c2" index="2" slack="7"/>
  <constraint name="c3" index="3" slack="73"/>
  <constraint name="c4" index="4" slack="0"/>
 </linearConstraints>
 <variables>
  <variable name="x0" index="0" value="1"/>
  <variable name="x1" index="1" value="1"/>
  <variable name="x2" index="2" value="-0"/>
  <variable name="x3" index="3" value="1"/>
  <variable name="x4" index="4" value="0"/>
  <variable name="x5" index="5" value="1"/>
  <variable name="x6" index="6" value="0"/>
  <variable name="x7" index="7" value="1"/>
  <variable name="x8" index="8" value="1"/>
  <variable name="x9" index="9" value="-0"/>
  <variable name="x10" index="10" value="1"/>
  <variable name="x11" index="11" value="-0"/>
  <variable name="x12" index="12" value="1"/>
  <variable name="x13" index="13" value="-0"/>
  <variable name="x14" index="14" value="1"/>
  <variable name="x15" index="15" value="1"/>
  <variable name="x16" index="16" value="1"/>
  <variable name="x17" index="17" value="1"/>
  <variable name="x18" index="18" value="1"/>
  <variable name="x19" index="19" value="1"/>
  <variable name="x20" index="20" value="0"/>
  <variable name="x21" index="21" value="0"/>
  <variable name="x22" index="22" value="1"/>
  <variable name="x23" index="23" value="-0"/>
  <variable name="x24" index="24" value="1"/>
  <variable name="x25" index="25" value="0"/>
  <variable name="x26" index="26" value="1"/>
  <variable name="x27" index="27" value="1"/>
  <variable name="x28" index="28" value="1"/>
  <variable name="x29" index="29" value="-0"/>
  <variable name="x30" index="30" value="1"/>
  <variable name="x31" index="31" value="1"/>
  <variable name="x32" index="32" value="-0"/>
  <variable name="x33" index="33" value="1"/>
  <variable name="x34" index="34" value="1"/>
  <variable name="x35" index="35" value="1"/>
  <variable name="x36" index="36" value="1"/>
  <variable name="x37" index="37" value="1"/>
  <variable name="x38" index="38" value="1"/>
 </variables>
 <objectiveValues>
  <objective index="0" name="" value="10618"/>
 </objectiveValues>
</CPLEXSolution>
